NAME          
ROWS
 N  OBJ
 L  c1
COLUMNS
    MARKER    'MARKER'                 'INTORG'
    x[1]      c1        392
    x[1]      OBJ       -954
    x[2]      c1        822
    x[2]      OBJ       -378
    x[3]      c1        146
    x[3]      OBJ       -507
    x[4]      c1        311
    x[4]      OBJ       -843
    x[5]      c1        173
    x[5]      OBJ       -389
    x[6]      c1        778
    x[6]      OBJ       -855
    x[7]      c1        802
    x[7]      OBJ       -773
    x[8]      c1        816
    x[8]      OBJ       -951
    x[9]      c1        455
    x[9]      OBJ       -900
    x[10]     c1        787
    x[10]     OBJ       -519
    x[11]     c1        880
    x[11]     OBJ       -446
    x[12]     c1        172
    x[12]     OBJ       -228
    x[13]     c1        834
    x[13]     OBJ       -123
    x[14]     c1        343
    x[14]     OBJ       -98
    x[15]     c1        563
    x[15]     OBJ       -443
    x[16]     c1        756
    x[16]     OBJ       -367
    x[17]     c1        155
    x[17]     OBJ       -546
    x[18]     c1        548
    x[18]     OBJ       -474
    x[19]     c1        120
    x[19]     OBJ       -448
    x[20]     c1        467
    x[20]     OBJ       -181
    x[21]     c1        484
    x[21]     OBJ       -476
    x[22]     c1        8
    x[22]     OBJ       -47
    x[23]     c1        37
    x[23]     OBJ       -650
    x[24]     c1        612
    x[24]     OBJ       -315
    x[25]     c1        808
    x[25]     OBJ       -796
    x[26]     c1        626
    x[26]     OBJ       -19
    x[27]     c1        167
    x[27]     OBJ       -270
    x[28]     c1        184
    x[28]     OBJ       -32
    x[29]     c1        488
    x[29]     OBJ       -460
    x[30]     c1        53
    x[30]     OBJ       -225
    x[31]     c1        149
    x[31]     OBJ       -665
    x[32]     c1        419
    x[32]     OBJ       -917
    x[33]     c1        705
    x[33]     OBJ       -767
    x[34]     c1        403
    x[34]     OBJ       -377
    x[35]     c1        341
    x[35]     OBJ       -559
    x[36]     c1        729
    x[36]     OBJ       -599
    x[37]     c1        225
    x[37]     OBJ       -765
    x[38]     c1        68
    x[38]     OBJ       -435
    x[39]     c1        913
    x[39]     OBJ       -436
    x[40]     c1        186
    x[40]     OBJ       -886
    x[41]     c1        627
    x[41]     OBJ       -294
    x[42]     c1        761
    x[42]     OBJ       -834
    x[43]     c1        254
    x[43]     OBJ       -495
    x[44]     c1        77
    x[44]     OBJ       -488
    x[45]     c1        743
    x[45]     OBJ       -142
    x[46]     c1        371
    x[46]     OBJ       -769
    x[47]     c1        570
    x[47]     OBJ       -920
    x[48]     c1        821
    x[48]     OBJ       -485
    x[49]     c1        702
    x[49]     OBJ       -232
    x[50]     c1        389
    x[50]     OBJ       -247
    x[51]     c1        110
    x[51]     OBJ       -681
    x[52]     c1        910
    x[52]     OBJ       -831
    x[53]     c1        76
    x[53]     OBJ       -723
    x[54]     c1        133
    x[54]     OBJ       -523
    x[55]     c1        951
    x[55]     OBJ       -456
    x[56]     c1        622
    x[56]     OBJ       -100
    x[57]     c1        207
    x[57]     OBJ       -777
    x[58]     c1        764
    x[58]     OBJ       -610
    x[59]     c1        641
    x[59]     OBJ       -171
    x[60]     c1        828
    x[60]     OBJ       -364
    x[61]     c1        604
    x[61]     OBJ       -858
    x[62]     c1        748
    x[62]     OBJ       -385
    x[63]     c1        278
    x[63]     OBJ       -741
    x[64]     c1        234
    x[64]     OBJ       -177
    x[65]     c1        297
    x[65]     OBJ       -353
    x[66]     c1        247
    x[66]     OBJ       -683
    x[67]     c1        734
    x[67]     OBJ       -630
    x[68]     c1        155
    x[68]     OBJ       -505
    x[69]     c1        392
    x[69]     OBJ       -458
    x[70]     c1        551
    x[70]     OBJ       -781
    x[71]     c1        381
    x[71]     OBJ       -820
    x[72]     c1        97
    x[72]     OBJ       -64
    x[73]     c1        860
    x[73]     OBJ       -273
    x[74]     c1        553
    x[74]     OBJ       -917
    x[75]     c1        520
    x[75]     OBJ       -325
    x[76]     c1        359
    x[76]     OBJ       -805
    x[77]     c1        676
    x[77]     OBJ       -628
    x[78]     c1        977
    x[78]     OBJ       -939
    x[79]     c1        647
    x[79]     OBJ       -236
    x[80]     c1        949
    x[80]     OBJ       -130
    x[81]     c1        753
    x[81]     OBJ       -176
    x[82]     c1        979
    x[82]     OBJ       -821
    x[83]     c1        11
    x[83]     OBJ       -611
    x[84]     c1        179
    x[84]     OBJ       -640
    x[85]     c1        446
    x[85]     OBJ       -698
    x[86]     c1        14
    x[86]     OBJ       -94
    x[87]     c1        940
    x[87]     OBJ       -924
    x[88]     c1        592
    x[88]     OBJ       -896
    x[89]     c1        247
    x[89]     OBJ       -272
    x[90]     c1        673
    x[90]     OBJ       -698
    x[91]     c1        296
    x[91]     OBJ       -607
    x[92]     c1        365
    x[92]     OBJ       -359
    x[93]     c1        695
    x[93]     OBJ       -127
    x[94]     c1        482
    x[94]     OBJ       -584
    x[95]     c1        779
    x[95]     OBJ       -676
    x[96]     c1        742
    x[96]     OBJ       -623
    x[97]     c1        512
    x[97]     OBJ       -611
    x[98]     c1        133
    x[98]     OBJ       -813
    x[99]     c1        782
    x[99]     OBJ       -120
    x[100]    c1        493
    x[100]    OBJ       -497
RHS
    rhs       c1        24427
RANGES
BOUNDS
 LO bounds    x[1]      0
 PL bounds    x[1]
 LO bounds    x[2]      0
 PL bounds    x[2]
 LO bounds    x[3]      0
 PL bounds    x[3]
 LO bounds    x[4]      0
 PL bounds    x[4]
 LO bounds    x[5]      0
 PL bounds    x[5]
 LO bounds    x[6]      0
 PL bounds    x[6]
 LO bounds    x[7]      0
 PL bounds    x[7]
 LO bounds    x[8]      0
 PL bounds    x[8]
 LO bounds    x[9]      0
 PL bounds    x[9]
 LO bounds    x[10]     0
 PL bounds    x[10]
 LO bounds    x[11]     0
 PL bounds    x[11]
 LO bounds    x[12]     0
 PL bounds    x[12]
 LO bounds    x[13]     0
 PL bounds    x[13]
 LO bounds    x[14]     0
 PL bounds    x[14]
 LO bounds    x[15]     0
 PL bounds    x[15]
 LO bounds    x[16]     0
 PL bounds    x[16]
 LO bounds    x[17]     0
 PL bounds    x[17]
 LO bounds    x[18]     0
 PL bounds    x[18]
 LO bounds    x[19]     0
 PL bounds    x[19]
 LO bounds    x[20]     0
 PL bounds    x[20]
 LO bounds    x[21]     0
 PL bounds    x[21]
 LO bounds    x[22]     0
 PL bounds    x[22]
 LO bounds    x[23]     0
 PL bounds    x[23]
 LO bounds    x[24]     0
 PL bounds    x[24]
 LO bounds    x[25]     0
 PL bounds    x[25]
 LO bounds    x[26]     0
 PL bounds    x[26]
 LO bounds    x[27]     0
 PL bounds    x[27]
 LO bounds    x[28]     0
 PL bounds    x[28]
 LO bounds    x[29]     0
 PL bounds    x[29]
 LO bounds    x[30]     0
 PL bounds    x[30]
 LO bounds    x[31]     0
 PL bounds    x[31]
 LO bounds    x[32]     0
 PL bounds    x[32]
 LO bounds    x[33]     0
 PL bounds    x[33]
 LO bounds    x[34]     0
 PL bounds    x[34]
 LO bounds    x[35]     0
 PL bounds    x[35]
 LO bounds    x[36]     0
 PL bounds    x[36]
 LO bounds    x[37]     0
 PL bounds    x[37]
 LO bounds    x[38]     0
 PL bounds    x[38]
 LO bounds    x[39]     0
 PL bounds    x[39]
 LO bounds    x[40]     0
 PL bounds    x[40]
 LO bounds    x[41]     0
 PL bounds    x[41]
 LO bounds    x[42]     0
 PL bounds    x[42]
 LO bounds    x[43]     0
 PL bounds    x[43]
 LO bounds    x[44]     0
 PL bounds    x[44]
 LO bounds    x[45]     0
 PL bounds    x[45]
 LO bounds    x[46]     0
 PL bounds    x[46]
 LO bounds    x[47]     0
 PL bounds    x[47]
 LO bounds    x[48]     0
 PL bounds    x[48]
 LO bounds    x[49]     0
 PL bounds    x[49]
 LO bounds    x[50]     0
 PL bounds    x[50]
 LO bounds    x[51]     0
 PL bounds    x[51]
 LO bounds    x[52]     0
 PL bounds    x[52]
 LO bounds    x[53]     0
 PL bounds    x[53]
 LO bounds    x[54]     0
 PL bounds    x[54]
 LO bounds    x[55]     0
 PL bounds    x[55]
 LO bounds    x[56]     0
 PL bounds    x[56]
 LO bounds    x[57]     0
 PL bounds    x[57]
 LO bounds    x[58]     0
 PL bounds    x[58]
 LO bounds    x[59]     0
 PL bounds    x[59]
 LO bounds    x[60]     0
 PL bounds    x[60]
 LO bounds    x[61]     0
 PL bounds    x[61]
 LO bounds    x[62]     0
 PL bounds    x[62]
 LO bounds    x[63]     0
 PL bounds    x[63]
 LO bounds    x[64]     0
 PL bounds    x[64]
 LO bounds    x[65]     0
 PL bounds    x[65]
 LO bounds    x[66]     0
 PL bounds    x[66]
 LO bounds    x[67]     0
 PL bounds    x[67]
 LO bounds    x[68]     0
 PL bounds    x[68]
 LO bounds    x[69]     0
 PL bounds    x[69]
 LO bounds    x[70]     0
 PL bounds    x[70]
 LO bounds    x[71]     0
 PL bounds    x[71]
 LO bounds    x[72]     0
 PL bounds    x[72]
 LO bounds    x[73]     0
 PL bounds    x[73]
 LO bounds    x[74]     0
 PL bounds    x[74]
 LO bounds    x[75]     0
 PL bounds    x[75]
 LO bounds    x[76]     0
 PL bounds    x[76]
 LO bounds    x[77]     0
 PL bounds    x[77]
 LO bounds    x[78]     0
 PL bounds    x[78]
 LO bounds    x[79]     0
 PL bounds    x[79]
 LO bounds    x[80]     0
 PL bounds    x[80]
 LO bounds    x[81]     0
 PL bounds    x[81]
 LO bounds    x[82]     0
 PL bounds    x[82]
 LO bounds    x[83]     0
 PL bounds    x[83]
 LO bounds    x[84]     0
 PL bounds    x[84]
 LO bounds    x[85]     0
 PL bounds    x[85]
 LO bounds    x[86]     0
 PL bounds    x[86]
 LO bounds    x[87]     0
 PL bounds    x[87]
 LO bounds    x[88]     0
 PL bounds    x[88]
 LO bounds    x[89]     0
 PL bounds    x[89]
 LO bounds    x[90]     0
 PL bounds    x[90]
 LO bounds    x[91]     0
 PL bounds    x[91]
 LO bounds    x[92]     0
 PL bounds    x[92]
 LO bounds    x[93]     0
 PL bounds    x[93]
 LO bounds    x[94]     0
 PL bounds    x[94]
 LO bounds    x[95]     0
 PL bounds    x[95]
 LO bounds    x[96]     0
 PL bounds    x[96]
 LO bounds    x[97]     0
 PL bounds    x[97]
 LO bounds    x[98]     0
 PL bounds    x[98]
 LO bounds    x[99]     0
 PL bounds    x[99]
 LO bounds    x[100]    0
 PL bounds    x[100]
ENDATA
